problems/csplib-prob056/sonet-models/noch/O2/lingeling/model_6_1-s3ring15-solution000001.solution
language Essence 1.3

letting network be
        mset({}, {}, {1, 7, 9, 11, 12}, {2, 3, 8, 10, 13}, {2, 4, 5, 9}, {3, 5, 6, 7, 10}, {4, 8, 11, 12, 13})
$ Here is a simple "visualisation" for the value above.
$ 
$ 
$  1  7  9 11 12
$  2  3  8 10 13
$  2  4  5  9
$  3  5  6  7 10
$  4  8 11 12 13

